p cnf 65 4
-11 -152 -154 -156 -157 -158 -162 -164 -165 -166 -167 -168 -169 -170 -171 -172 -173 -174 -175 -176 -177 -178 -179 -180 -181 -182 -185 -186 -187 -190 -191 -192 -193 -194 -197 -198 -200 -201 -202 -203 -204 -207 -209 -210 -211 -212 -213 -214 -215 -217 -218 -219 -220 -221 -222 -223 -224 -225 -2472 -2474 -2494 0
-11 -152 -154 -157 -158 -162 -164 -165 -166 -167 -168 -169 -170 -171 -172 -173 -174 -175 -176 -177 -178 -179 -180 -181 -182 -185 -186 -187 -190 -191 -192 -193 -194 -197 -198 -200 -201 -202 -203 -204 -207 -209 -210 -211 -212 -213 -214 -215 -216 -217 -218 -219 -220 -221 -222 -223 -224 -225 -2472 -2474 -2494 0
-152 -154 -157 -159 -162 -164 -165 -166 -167 -168 -169 -170 -171 -172 -173 -174 -175 -177 -178 -179 -180 -181 -182 -185 -187 -190 -193 -194 -197 -198 -200 -201 -202 -203 -204 -207 -209 -210 -211 -212 -213 -214 -215 -216 -217 -218 -219 -220 -221 -222 -223 -224 -225 -2151 -2152 -2472 -2474 -2494 0
-152 -154 -156 -157 -159 -162 -164 -165 -166 -167 -168 -169 -170 -171 -172 -173 -174 -175 -177 -178 -179 -180 -181 -182 -185 -187 -190 -193 -194 -197 -198 -200 -201 -202 -203 -204 -207 -209 -210 -211 -212 -213 -214 -215 -217 -218 -219 -220 -221 -222 -223 -224 -225 -2151 -2152 -2472 -2474 -2494 0
